Read MPS format model from file dat/rmp/4node-base_2048_20.mps
Reading time = 0.12 seconds
: 2108 rows, 10380 columns, 362134 nonzeros
Gurobi Optimizer version 9.0.0 build v9.0.0rc2 (linux64)
Optimize a model with 2108 rows, 10380 columns and 362134 nonzeros
Model fingerprint: 0x23c3a9c9
Coefficient statistics:
  Matrix range     [3e-03, 2e+01]
  Objective range  [4e-02, 1e+04]
  Bounds range     [0e+00, 0e+00]
  RHS range        [1e+00, 8e+01]
Ordering time: 0.00s

Barrier statistics:
 AA' NZ     : 1.054e+05
 Factor NZ  : 1.306e+05 (roughly 6 MBytes of memory)
 Factor Ops : 8.406e+06 (less than 1 second per iteration)
 Threads    : 1

                  Objective                Residual
Iter       Primal          Dual         Primal    Dual     Compl     Time
   0   2.08849955e+07  0.00000000e+00  4.79e+02 2.40e+02  5.03e+04     0s
   1   5.49008536e+05 -1.22512355e+07  1.16e+01 9.39e+02  2.53e+03     0s
   2   6.98692020e+03 -4.29702191e+06  1.39e-02 1.34e+01  4.19e+02     0s
   3   1.66913198e+03 -8.25372150e+05  2.42e-03 2.32e+00  8.03e+01     0s
   4  -7.05490617e+01 -8.83398864e+04  2.79e-05 2.32e-01  8.56e+00     0s
   5  -2.76827838e+02 -4.65416598e+03  2.81e-06 8.84e-03  4.24e-01     0s
   6  -3.13137475e+02 -7.58438581e+02  1.52e-07 6.21e-04  4.31e-02     0s
   7  -3.31258423e+02 -6.54522925e+02  1.21e-07 4.21e-04  3.13e-02     0s
   8  -3.54472828e+02 -4.95149039e+02  5.32e-08 1.40e-04  1.36e-02     0s
   9  -3.78825479e+02 -4.46075222e+02  1.38e-08 4.08e-05  6.49e-03     0s
  10  -3.92174604e+02 -4.25048687e+02  1.07e-08 5.67e-06  3.17e-03     0s
  11  -3.97962916e+02 -4.19631603e+02  1.39e-08 3.29e-06  2.09e-03     0s
  12  -4.01391940e+02 -4.17038384e+02  1.83e-08 1.85e-06  1.51e-03     0s
  13  -4.04156199e+02 -4.15874784e+02  3.55e-08 9.96e-07  1.13e-03     0s
  14  -4.05090776e+02 -4.14656045e+02  3.43e-08 3.36e-07  9.22e-04     0s
  15  -4.08544459e+02 -4.13751724e+02  6.81e-08 1.19e-07  5.02e-04     0s
  16  -4.09798566e+02 -4.13217555e+02  1.04e-07 3.97e-08  3.30e-04     0s
  17  -4.10309552e+02 -4.13041240e+02  1.63e-07 2.23e-08  2.63e-04     0s
  18  -4.11012290e+02 -4.12971630e+02  4.61e-07 1.21e-08  1.89e-04     1s
  19  -4.11959353e+02 -4.12865079e+02  2.04e-07 6.19e-09  8.73e-05     1s
  20  -4.12198812e+02 -4.12789050e+02  2.50e-07 2.22e-09  5.69e-05     1s
  21  -4.12453619e+02 -4.12755686e+02  1.36e-07 8.38e-10  2.91e-05     1s
  22  -4.12555033e+02 -4.12743931e+02  6.99e-08 2.93e-10  1.82e-05     1s
  23  -4.12575467e+02 -4.12736781e+02  5.79e-08 1.28e-10  1.55e-05     1s
  24  -4.12635496e+02 -4.12734820e+02  3.51e-08 8.16e-11  9.57e-06     1s
  25  -4.12648571e+02 -4.12733685e+02  2.98e-08 5.38e-11  8.20e-06     1s
  26  -4.12684280e+02 -4.12732633e+02  2.72e-08 2.29e-11  4.66e-06     1s
  27  -4.12684300e+02 -4.12732643e+02  1.56e-06 2.27e-11  4.66e-06     1s
  28  -4.12684493e+02 -4.12737194e+02  3.03e-06 5.82e-11  5.08e-06     1s
  29  -4.12720550e+02 -4.12731952e+02  3.52e-06 1.46e-11  1.10e-06     1s
  30  -4.12730502e+02 -4.12731153e+02  3.99e-07 2.91e-11  6.29e-08     1s
  31  -4.12731148e+02 -4.12731149e+02  1.27e-08 1.46e-11  1.92e-10     1s

Barrier solved model in 31 iterations and 1.01 seconds
Optimal objective -4.12731148e+02

Solve time: 1.007809813
Barrier iterations: 31
